&control
prefix = 'titania'
calculation = 'scf'
restart_mode = 'from_scratch'
wf_collect = .false.
disk_io = 'none'
tstress = .false.
tprnfor = .false.
outdir = './'
wfcdir = './'
pseudo_dir = './'
/
&system
ibrav = 0
celldm(1) = 8.7671
nat = 384
ntyp = 2
nbnd = 1536
ecutwfc = 120
input_dft = 'pbe0'
nqx1 = 1
nqx2 = 1
nqx3 = 1
exxdiv_treatment = 'gygi-baldereschi'
/
&electrons
startingwfc='atomic'
electron_maxstep = 1
conv_thr = 1.0d5
mixing_mode = 'plain'
mixing_beta = 0.7
mixing_ndim = 8
diagonalization = 'david'
diago_david_ndim = 4
diago_full_acc = .true.
/
CELL_PARAMETERS
4.0 0.0 0.0
0.0 4.0 0.0
0.0 0.0 2.554352
ATOMIC_SPECIES
Ti 47.867 Ti.pbe.nml
O 15.9994 O.pbe.nml
ATOMIC_POSITIONS crystal
Ti 0.0 0.0 0.0
Ti 0.125 0.125 0.125
O 0.076271925 0.076271925 0.0
O -0.076271925 -0.076271925 0.0
O 0.201271925 0.048728075 0.125
O 0.048728075 0.201271925 0.125
Ti 0.0 0.0 0.25
Ti 0.125 0.125 0.375
O 0.076271925 0.076271925 0.25
O -0.076271925 -0.076271925 0.25
O 0.201271925 0.048728075 0.375
O 0.048728075 0.201271925 0.375
Ti 0.0 0.0 0.5
Ti 0.125 0.125 0.625
O 0.076271925 0.076271925 0.5
O -0.076271925 -0.076271925 0.5
O 0.201271925 0.048728075 0.625
O 0.048728075 0.201271925 0.625
Ti 0.0 0.0 0.75
Ti 0.125 0.125 0.875
O 0.076271925 0.076271925 0.75
O -0.076271925 -0.076271925 0.75
O 0.201271925 0.048728075 0.875
O 0.048728075 0.201271925 0.875
Ti 0.0 0.25 0.0
Ti 0.125 0.375 0.125
O 0.076271925 0.326271925 0.0
O -0.076271925 0.173728075 0.0
O 0.201271925 0.298728075 0.125
O 0.048728075 0.451271925 0.125
Ti 0.0 0.25 0.25
Ti 0.125 0.375 0.375
O 0.076271925 0.326271925 0.25
O -0.076271925 0.173728075 0.25
O 0.201271925 0.298728075 0.375
O 0.048728075 0.451271925 0.375
Ti 0.0 0.25 0.5
Ti 0.125 0.375 0.625
O 0.076271925 0.326271925 0.5
O -0.076271925 0.173728075 0.5
O 0.201271925 0.298728075 0.625
O 0.048728075 0.451271925 0.625
Ti 0.0 0.25 0.75
Ti 0.125 0.375 0.875
O 0.076271925 0.326271925 0.75
O -0.076271925 0.173728075 0.75
O 0.201271925 0.298728075 0.875
O 0.048728075 0.451271925 0.875
Ti 0.0 0.5 0.0
Ti 0.125 0.625 0.125
O 0.076271925 0.576271925 0.0
O -0.076271925 0.423728075 0.0
O 0.201271925 0.548728075 0.125
O 0.048728075 0.701271925 0.125
Ti 0.0 0.5 0.25
Ti 0.125 0.625 0.375
O 0.076271925 0.576271925 0.25
O -0.076271925 0.423728075 0.25
O 0.201271925 0.548728075 0.375
O 0.048728075 0.701271925 0.375
Ti 0.0 0.5 0.5
Ti 0.125 0.625 0.625
O 0.076271925 0.576271925 0.5
O -0.076271925 0.423728075 0.5
O 0.201271925 0.548728075 0.625
O 0.048728075 0.701271925 0.625
Ti 0.0 0.5 0.75
Ti 0.125 0.625 0.875
O 0.076271925 0.576271925 0.75
O -0.076271925 0.423728075 0.75
O 0.201271925 0.548728075 0.875
O 0.048728075 0.701271925 0.875
Ti 0.0 0.75 0.0
Ti 0.125 0.875 0.125
O 0.076271925 0.826271925 0.0
O -0.076271925 0.673728075 0.0
O 0.201271925 0.798728075 0.125
O 0.048728075 0.951271925 0.125
Ti 0.0 0.75 0.25
Ti 0.125 0.875 0.375
O 0.076271925 0.826271925 0.25
O -0.076271925 0.673728075 0.25
O 0.201271925 0.798728075 0.375
O 0.048728075 0.951271925 0.375
Ti 0.0 0.75 0.5
Ti 0.125 0.875 0.625
O 0.076271925 0.826271925 0.5
O -0.076271925 0.673728075 0.5
O 0.201271925 0.798728075 0.625
O 0.048728075 0.951271925 0.625
Ti 0.0 0.75 0.75
Ti 0.125 0.875 0.875
O 0.076271925 0.826271925 0.75
O -0.076271925 0.673728075 0.75
O 0.201271925 0.798728075 0.875
O 0.048728075 0.951271925 0.875
Ti 0.25 0.0 0.0
Ti 0.375 0.125 0.125
O 0.326271925 0.076271925 0.0
O 0.173728075 -0.076271925 0.0
O 0.451271925 0.048728075 0.125
O 0.298728075 0.201271925 0.125
Ti 0.25 0.0 0.25
Ti 0.375 0.125 0.375
O 0.326271925 0.076271925 0.25
O 0.173728075 -0.076271925 0.25
O 0.451271925 0.048728075 0.375
O 0.298728075 0.201271925 0.375
Ti 0.25 0.0 0.5
Ti 0.375 0.125 0.625
O 0.326271925 0.076271925 0.5
O 0.173728075 -0.076271925 0.5
O 0.451271925 0.048728075 0.625
O 0.298728075 0.201271925 0.625
Ti 0.25 0.0 0.75
Ti 0.375 0.125 0.875
O 0.326271925 0.076271925 0.75
O 0.173728075 -0.076271925 0.75
O 0.451271925 0.048728075 0.875
O 0.298728075 0.201271925 0.875
Ti 0.25 0.25 0.0
Ti 0.375 0.375 0.125
O 0.326271925 0.326271925 0.0
O 0.173728075 0.173728075 0.0
O 0.451271925 0.298728075 0.125
O 0.298728075 0.451271925 0.125
Ti 0.25 0.25 0.25
Ti 0.375 0.375 0.375
O 0.326271925 0.326271925 0.25
O 0.173728075 0.173728075 0.25
O 0.451271925 0.298728075 0.375
O 0.298728075 0.451271925 0.375
Ti 0.25 0.25 0.5
Ti 0.375 0.375 0.625
O 0.326271925 0.326271925 0.5
O 0.173728075 0.173728075 0.5
O 0.451271925 0.298728075 0.625
O 0.298728075 0.451271925 0.625
Ti 0.25 0.25 0.75
Ti 0.375 0.375 0.875
O 0.326271925 0.326271925 0.75
O 0.173728075 0.173728075 0.75
O 0.451271925 0.298728075 0.875
O 0.298728075 0.451271925 0.875
Ti 0.25 0.5 0.0
Ti 0.375 0.625 0.125
O 0.326271925 0.576271925 0.0
O 0.173728075 0.423728075 0.0
O 0.451271925 0.548728075 0.125
O 0.298728075 0.701271925 0.125
Ti 0.25 0.5 0.25
Ti 0.375 0.625 0.375
O 0.326271925 0.576271925 0.25
O 0.173728075 0.423728075 0.25
O 0.451271925 0.548728075 0.375
O 0.298728075 0.701271925 0.375
Ti 0.25 0.5 0.5
Ti 0.375 0.625 0.625
O 0.326271925 0.576271925 0.5
O 0.173728075 0.423728075 0.5
O 0.451271925 0.548728075 0.625
O 0.298728075 0.701271925 0.625
Ti 0.25 0.5 0.75
Ti 0.375 0.625 0.875
O 0.326271925 0.576271925 0.75
O 0.173728075 0.423728075 0.75
O 0.451271925 0.548728075 0.875
O 0.298728075 0.701271925 0.875
Ti 0.25 0.75 0.0
Ti 0.375 0.875 0.125
O 0.326271925 0.826271925 0.0
O 0.173728075 0.673728075 0.0
O 0.451271925 0.798728075 0.125
O 0.298728075 0.951271925 0.125
Ti 0.25 0.75 0.25
Ti 0.375 0.875 0.375
O 0.326271925 0.826271925 0.25
O 0.173728075 0.673728075 0.25
O 0.451271925 0.798728075 0.375
O 0.298728075 0.951271925 0.375
Ti 0.25 0.75 0.5
Ti 0.375 0.875 0.625
O 0.326271925 0.826271925 0.5
O 0.173728075 0.673728075 0.5
O 0.451271925 0.798728075 0.625
O 0.298728075 0.951271925 0.625
Ti 0.25 0.75 0.75
Ti 0.375 0.875 0.875
O 0.326271925 0.826271925 0.75
O 0.173728075 0.673728075 0.75
O 0.451271925 0.798728075 0.875
O 0.298728075 0.951271925 0.875
Ti 0.5 0.0 0.0
Ti 0.625 0.125 0.125
O 0.576271925 0.076271925 0.0
O 0.423728075 -0.076271925 0.0
O 0.701271925 0.048728075 0.125
O 0.548728075 0.201271925 0.125
Ti 0.5 0.0 0.25
Ti 0.625 0.125 0.375
O 0.576271925 0.076271925 0.25
O 0.423728075 -0.076271925 0.25
O 0.701271925 0.048728075 0.375
O 0.548728075 0.201271925 0.375
Ti 0.5 0.0 0.5
Ti 0.625 0.125 0.625
O 0.576271925 0.076271925 0.5
O 0.423728075 -0.076271925 0.5
O 0.701271925 0.048728075 0.625
O 0.548728075 0.201271925 0.625
Ti 0.5 0.0 0.75
Ti 0.625 0.125 0.875
O 0.576271925 0.076271925 0.75
O 0.423728075 -0.076271925 0.75
O 0.701271925 0.048728075 0.875
O 0.548728075 0.201271925 0.875
Ti 0.5 0.25 0.0
Ti 0.625 0.375 0.125
O 0.576271925 0.326271925 0.0
O 0.423728075 0.173728075 0.0
O 0.701271925 0.298728075 0.125
O 0.548728075 0.451271925 0.125
Ti 0.5 0.25 0.25
Ti 0.625 0.375 0.375
O 0.576271925 0.326271925 0.25
O 0.423728075 0.173728075 0.25
O 0.701271925 0.298728075 0.375
O 0.548728075 0.451271925 0.375
Ti 0.5 0.25 0.5
Ti 0.625 0.375 0.625
O 0.576271925 0.326271925 0.5
O 0.423728075 0.173728075 0.5
O 0.701271925 0.298728075 0.625
O 0.548728075 0.451271925 0.625
Ti 0.5 0.25 0.75
Ti 0.625 0.375 0.875
O 0.576271925 0.326271925 0.75
O 0.423728075 0.173728075 0.75
O 0.701271925 0.298728075 0.875
O 0.548728075 0.451271925 0.875
Ti 0.5 0.5 0.0
Ti 0.625 0.625 0.125
O 0.576271925 0.576271925 0.0
O 0.423728075 0.423728075 0.0
O 0.701271925 0.548728075 0.125
O 0.548728075 0.701271925 0.125
Ti 0.5 0.5 0.25
Ti 0.625 0.625 0.375
O 0.576271925 0.576271925 0.25
O 0.423728075 0.423728075 0.25
O 0.701271925 0.548728075 0.375
O 0.548728075 0.701271925 0.375
Ti 0.5 0.5 0.5
Ti 0.625 0.625 0.625
O 0.576271925 0.576271925 0.5
O 0.423728075 0.423728075 0.5
O 0.701271925 0.548728075 0.625
O 0.548728075 0.701271925 0.625
Ti 0.5 0.5 0.75
Ti 0.625 0.625 0.875
O 0.576271925 0.576271925 0.75
O 0.423728075 0.423728075 0.75
O 0.701271925 0.548728075 0.875
O 0.548728075 0.701271925 0.875
Ti 0.5 0.75 0.0
Ti 0.625 0.875 0.125
O 0.576271925 0.826271925 0.0
O 0.423728075 0.673728075 0.0
O 0.701271925 0.798728075 0.125
O 0.548728075 0.951271925 0.125
Ti 0.5 0.75 0.25
Ti 0.625 0.875 0.375
O 0.576271925 0.826271925 0.25
O 0.423728075 0.673728075 0.25
O 0.701271925 0.798728075 0.375
O 0.548728075 0.951271925 0.375
Ti 0.5 0.75 0.5
Ti 0.625 0.875 0.625
O 0.576271925 0.826271925 0.5
O 0.423728075 0.673728075 0.5
O 0.701271925 0.798728075 0.625
O 0.548728075 0.951271925 0.625
Ti 0.5 0.75 0.75
Ti 0.625 0.875 0.875
O 0.576271925 0.826271925 0.75
O 0.423728075 0.673728075 0.75
O 0.701271925 0.798728075 0.875
O 0.548728075 0.951271925 0.875
Ti 0.75 0.0 0.0
Ti 0.875 0.125 0.125
O 0.826271925 0.076271925 0.0
O 0.673728075 -0.076271925 0.0
O 0.951271925 0.048728075 0.125
O 0.798728075 0.201271925 0.125
Ti 0.75 0.0 0.25
Ti 0.875 0.125 0.375
O 0.826271925 0.076271925 0.25
O 0.673728075 -0.076271925 0.25
O 0.951271925 0.048728075 0.375
O 0.798728075 0.201271925 0.375
Ti 0.75 0.0 0.5
Ti 0.875 0.125 0.625
O 0.826271925 0.076271925 0.5
O 0.673728075 -0.076271925 0.5
O 0.951271925 0.048728075 0.625
O 0.798728075 0.201271925 0.625
Ti 0.75 0.0 0.75
Ti 0.875 0.125 0.875
O 0.826271925 0.076271925 0.75
O 0.673728075 -0.076271925 0.75
O 0.951271925 0.048728075 0.875
O 0.798728075 0.201271925 0.875
Ti 0.75 0.25 0.0
Ti 0.875 0.375 0.125
O 0.826271925 0.326271925 0.0
O 0.673728075 0.173728075 0.0
O 0.951271925 0.298728075 0.125
O 0.798728075 0.451271925 0.125
Ti 0.75 0.25 0.25
Ti 0.875 0.375 0.375
O 0.826271925 0.326271925 0.25
O 0.673728075 0.173728075 0.25
O 0.951271925 0.298728075 0.375
O 0.798728075 0.451271925 0.375
Ti 0.75 0.25 0.5
Ti 0.875 0.375 0.625
O 0.826271925 0.326271925 0.5
O 0.673728075 0.173728075 0.5
O 0.951271925 0.298728075 0.625
O 0.798728075 0.451271925 0.625
Ti 0.75 0.25 0.75
Ti 0.875 0.375 0.875
O 0.826271925 0.326271925 0.75
O 0.673728075 0.173728075 0.75
O 0.951271925 0.298728075 0.875
O 0.798728075 0.451271925 0.875
Ti 0.75 0.5 0.0
Ti 0.875 0.625 0.125
O 0.826271925 0.576271925 0.0
O 0.673728075 0.423728075 0.0
O 0.951271925 0.548728075 0.125
O 0.798728075 0.701271925 0.125
Ti 0.75 0.5 0.25
Ti 0.875 0.625 0.375
O 0.826271925 0.576271925 0.25
O 0.673728075 0.423728075 0.25
O 0.951271925 0.548728075 0.375
O 0.798728075 0.701271925 0.375
Ti 0.75 0.5 0.5
Ti 0.875 0.625 0.625
O 0.826271925 0.576271925 0.5
O 0.673728075 0.423728075 0.5
O 0.951271925 0.548728075 0.625
O 0.798728075 0.701271925 0.625
Ti 0.75 0.5 0.75
Ti 0.875 0.625 0.875
O 0.826271925 0.576271925 0.75
O 0.673728075 0.423728075 0.75
O 0.951271925 0.548728075 0.875
O 0.798728075 0.701271925 0.875
Ti 0.75 0.75 0.0
Ti 0.875 0.875 0.125
O 0.826271925 0.826271925 0.0
O 0.673728075 0.673728075 0.0
O 0.951271925 0.798728075 0.125
O 0.798728075 0.951271925 0.125
Ti 0.75 0.75 0.25
Ti 0.875 0.875 0.375
O 0.826271925 0.826271925 0.25
O 0.673728075 0.673728075 0.25
O 0.951271925 0.798728075 0.375
O 0.798728075 0.951271925 0.375
Ti 0.75 0.75 0.5
Ti 0.875 0.875 0.625
O 0.826271925 0.826271925 0.5
O 0.673728075 0.673728075 0.5
O 0.951271925 0.798728075 0.625
O 0.798728075 0.951271925 0.625
Ti 0.75 0.75 0.75
Ti 0.875 0.875 0.875
O 0.826271925 0.826271925 0.75
O 0.673728075 0.673728075 0.75
O 0.951271925 0.798728075 0.875
O 0.798728075 0.951271925 0.875
K_POINTS automatic
1 1 1 1 1 1
